PREC = Normal
ISTART = 0
ICHARG = 2
ALGO = Normal
ENCUT = 400
EDIFF = 1E-5
EDIFFG = -0.005
ISPIN = 2
#NUPDOWN = 1
NELECT = 384
IBRION = 2
NSW = 300
ISIF = 2
ISYM = -1
ISMEAR = 0
SIGMA = 0.04
LREAL = .FALSE.
LHFCALC = .TRUE.
HFSCREEN = 0.2
AEXX = 0.31
PRECFOCK = Normal
LWAVE = .TRUE.
LCHARG = .FALSE.