SYSTEM   = Gan96 hse31
ISTART   = 0
PREC     = Normal
ALGO     = Normal
ISPIN    = 2
NELMIN   = 5
EDIFF    = 1E-5
EDIFFG   = -0.005
ISYM     = -1
ENCUT    = 400
#NUPDOWN  = 1
ISMEAR   = 0
SIGMA    = 0.04
NELECT = 384
LHFCALC  = .TRUE.
HFSCREEN = 0.2
AEXX     = 0.31
PRECFOCK = Normal