KPOINTS
1
Reciprocal
0.25 0.25 0.25 1.0