GaN96 wurtzite                          
   1.00000000000000     
     9.5879999999999992    0.0000000000000000    0.0000000000000000
     0.0000000000000000   11.0712687619802637    0.0000000000000000
     0.0000000000000000    0.0000000000000000   10.3840000000000003
   Ga   N    C 
    48    47     1
Selective dynamics
Direct
  0.1663091249700330  0.0836191181873815  0.0007956054070670   T   T   T
  0.1666052120447246  0.9170891172255576  0.2498891019925254   T   T   T
  0.3329311378312854  0.3334207661298153  0.0006919668474722   T   T   T
  0.3327686784838152  0.1667469617039735  0.2500873622719290   T   T   T
  0.1664923338469984  0.0838639736268316  0.5004198071016076   T   T   T
  0.1671394596376841  0.9166373155458384  0.7503368295008382   T   T   T
  0.3338093452037750  0.3327463337251869  0.5002398469070187   T   T   T
  0.3331349570203532  0.1664466457092084  0.7504524975233859   T   T   T
  0.1669282788157832  0.5835389054473242  0.0004882058839149   T   T   T
  0.1649003442343522  0.4166134885299929  0.2500160562930123   T   T   T
  0.3331966772885728  0.8332370723153479 -0.0000117105259262   T   T   T
  0.3338020440757700  0.6664260279608509  0.2498915685663369   T   T   T
  0.1685812058367720  0.5836378677727604  0.4997520097162504   T   T   T
  0.1677807752161601  0.4170511211972436  0.7515752497654528   T   T   T
  0.3334980232465278  0.8324004557583067  0.4999941858815152   T   T   T
  0.3341496524575459  0.6662337981123231  0.7499178181311249   T   T   T
  0.4993418962602897  0.0830685241746077  0.0001237420222252   T   T   T
  0.4997025871542314  0.9163557489119781  0.2497682221668429   T   T   T
  0.6653942844559729  0.3327926733563291  0.9975657117025608   T   T   T
  0.6656342355800046  0.1667513585248126  0.2493227540375891   T   T   T
  0.4982593975338692  0.0809375455920025  0.5001268041150613   T   T   T
  0.4999294561127021  0.9160190904766659  0.7500686430672381   T   T   T
  0.6659002424961222  0.3275525821918788  0.5003855483242926   T   T   T
  0.6660941039294345  0.1652465978586256  0.7503054154057849   T   T   T
  0.5001520789959527  0.5832406982221521  0.9998147924163779   T   T   T
  0.4998519958403421  0.4161091007872099  0.2494434793511539   T   T   T
  0.6664584291776837  0.8332836155812281 -0.0001207398621704   T   T   T
  0.6676454699999228  0.6665673590160831  0.2490746644908839   T   T   T
  0.5025666799687378  0.5821030194301043  0.4994916163780307   T   T   T
  0.4997458451743677  0.4163080043011768  0.7496545078647137   T   T   T
  0.6676167360063240  0.8329512483703418  0.4996667902314513   T   T   T
  0.6668832550684264  0.6666228108734423  0.7492569197376613   T   T   T
  0.8327964670527999  0.0830396290677077  0.0005712548192457   T   T   T
  0.8333321094333564  0.9168388089429427  0.2498050827410992   T   T   T
  0.9989849335710621  0.3336603168608484  0.9989129396003312   T   T   T
  0.9987712382275948  0.1681503466145047  0.2500812117769543   T   T   T
  0.8324228608557434  0.0830676173943393  0.4998960609748748   T   T   T
  0.8334331894459026  0.9163268723764579  0.7500233273533770   T   T   T
  0.0032243464549563  0.3332688139816529  0.5066940430019843   T   T   T
  0.9996688105501617  0.1653801572458459  0.7514605842693828   T   T   T
  0.8333566533833731  0.5841735223113247  0.9973362406061766   T   T   T
  0.8293473756706116  0.4187384066321361  0.2454969835876361   T   T   T
  0.0001218025371483  0.8336810721116217 -0.0000678574301372   T   T   T
  0.0000600924052440  0.6671092450198718  0.2489818105820399   T   T   T
  0.8407812836705367  0.5864907837758763  0.5006109203073289   T   T   T
  0.8324177478029348  0.4164637170968731  0.7487337457267880   T   T   T
  0.0014668943094192  0.8352129309959276  0.5001340174315679   T   T   T
  0.0015652165652469  0.6670775074515337  0.7502386457380998   T   T   T
  0.1655593490518228  0.0839930796177699  0.1894620736843352   T   T   T
  0.1668585732165226  0.9171532385583419  0.9389589753466865   F   F   F
  0.3320218419213852  0.3334609457972303  0.1893211194387820   T   T   T
  0.3328650247197736  0.1668348391209248  0.9390541568976108   T   T   T
  0.1664151365684883  0.0832510875835523  0.6889371702918745   T   T   T
  0.1678297496893188  0.9178530536830282  0.4386561874043465   T   T   T
  0.3330188847058718  0.3329276499683272  0.6887023180013547   T   T   T
  0.3328281969284804  0.1663807890275171  0.4388645980950454   T   T   T
  0.1668249894876370  0.5833437030948883  0.1890696220953735   T   T   T
  0.1665600140998125  0.4169385639362257  0.9396038579099192   T   T   T
  0.3328998603338516  0.8331546361709068  0.1886773167034717   T   T   T
  0.3334903655160030  0.6666409482670836  0.9386313895077475   T   T   T
  0.1674257311447410  0.5830305026938224  0.6884703355612221   T   T   T
  0.1666669947891193  0.4165776476828836  0.4391346069837163   T   T   T
  0.3332499027217610  0.8327950555355865  0.6886786805330255   T   T   T
  0.3355860390251655  0.6659159209195625  0.4385855334736294   T   T   T
  0.4988351853405868  0.0829175930032434  0.1886474687446546   T   T   T
  0.4997486441385064  0.9165318102335576  0.9386556240369828   F   F   F
  0.6639047530039893  0.3321828641610725  0.1848006653749415   T   T   T
  0.6661995559760366  0.1655163292859280  0.9384432279050317   T   T   T
  0.4990874251758406  0.0824555138535324  0.6887517874024083   T   T   T
  0.4999748384459544  0.9146509549131405  0.4384485328345695   T   T   T
  0.6654714237743107  0.3316564613582828  0.6898349486252717   T   T   T
  0.6640019104999767  0.1621480749224758  0.4380275897843668   T   T   T
  0.5004213171439240  0.5831712959868747  0.1886546584459150   T   T   T
  0.4987630241228935  0.4168938302741184  0.9379981768457254   T   T   T
  0.6664712761814797  0.8335679152353740  0.1886477386483028   T   T   T
  0.6660307963286678  0.6670675747673993  0.9375872353506119   T   T   T
  0.5006240713520113  0.5828842605646980  0.6880690997453555   T   T   T
  0.5002967681225911  0.4154410844632955  0.4384928922424338   T   T   T
  0.6667950652211082  0.8332357011352424  0.6881947320280496   T   T   T
  0.6697517655151152  0.6654271939603620  0.4382952288298042   T   T   T
  0.8328193806653379  0.0835433772074165  0.1891681054724368   T   T   T
  0.8332204067588256  0.9165292647247594  0.9386648789439686   T   T   T
  0.9985533665644386  0.3340280769856084  0.1874865543929986   T   T   T
  0.9994539639371718  0.1663093805636557  0.9395785755923020   T   T   T
  0.8332092347082701  0.0829211745486402  0.6885824650978924   T   T   T
  0.8340572890624274  0.9165834988729292  0.4385457335476945   T   T   T
  0.0012316984381915  0.3325641226632509  0.6929753368285521   T   T   T
  0.9988513841975959  0.1682149407871350  0.4393599036036210   T   T   T
  0.8335862694434082  0.5857105795496548  0.1845999177740672   T   T   T
  0.8323999666225337  0.4168842609234870  0.9374749582229047   T   T   T
  0.0000981875600574  0.8339926126204045  0.1884371695951746   T   T   T
  0.0010672782064912  0.6672275011299836  0.9382917287523257   T   T   T
  0.8346159818287103  0.5840831009317142  0.6893727713054818   T   T   T
  0.0004491305588321  0.8336451401460996  0.6887518366138685   T   T   T
  0.0045620788032010  0.6700220747635052  0.4378099323139284   T   T   T
  0.8303623301731885  0.4164241038458511  0.4355405655422132   T   T   T
 
  0.00000000E+00  0.00000000E+00  0.00000000E+00
  0.00000000E+00  0.00000000E+00  0.00000000E+00
  0.00000000E+00  0.00000000E+00  0.00000000E+00
  0.00000000E+00  0.00000000E+00  0.00000000E+00
  0.00000000E+00  0.00000000E+00  0.00000000E+00
  0.00000000E+00  0.00000000E+00  0.00000000E+00
  0.00000000E+00  0.00000000E+00  0.00000000E+00
  0.00000000E+00  0.00000000E+00  0.00000000E+00
  0.00000000E+00  0.00000000E+00  0.00000000E+00
  0.00000000E+00  0.00000000E+00  0.00000000E+00
  0.00000000E+00  0.00000000E+00  0.00000000E+00
  0.00000000E+00  0.00000000E+00  0.00000000E+00
  0.00000000E+00  0.00000000E+00  0.00000000E+00
  0.00000000E+00  0.00000000E+00  0.00000000E+00
  0.00000000E+00  0.00000000E+00  0.00000000E+00
  0.00000000E+00  0.00000000E+00  0.00000000E+00
  0.00000000E+00  0.00000000E+00  0.00000000E+00
  0.00000000E+00  0.00000000E+00  0.00000000E+00
  0.00000000E+00  0.00000000E+00  0.00000000E+00
  0.00000000E+00  0.00000000E+00  0.00000000E+00
  0.00000000E+00  0.00000000E+00  0.00000000E+00
  0.00000000E+00  0.00000000E+00  0.00000000E+00
  0.00000000E+00  0.00000000E+00  0.00000000E+00
  0.00000000E+00  0.00000000E+00  0.00000000E+00
  0.00000000E+00  0.00000000E+00  0.00000000E+00
  0.00000000E+00  0.00000000E+00  0.00000000E+00
  0.00000000E+00  0.00000000E+00  0.00000000E+00
  0.00000000E+00  0.00000000E+00  0.00000000E+00
  0.00000000E+00  0.00000000E+00  0.00000000E+00
  0.00000000E+00  0.00000000E+00  0.00000000E+00
  0.00000000E+00  0.00000000E+00  0.00000000E+00
  0.00000000E+00  0.00000000E+00  0.00000000E+00
  0.00000000E+00  0.00000000E+00  0.00000000E+00
  0.00000000E+00  0.00000000E+00  0.00000000E+00
  0.00000000E+00  0.00000000E+00  0.00000000E+00
  0.00000000E+00  0.00000000E+00  0.00000000E+00
  0.00000000E+00  0.00000000E+00  0.00000000E+00
  0.00000000E+00  0.00000000E+00  0.00000000E+00
  0.00000000E+00  0.00000000E+00  0.00000000E+00
  0.00000000E+00  0.00000000E+00  0.00000000E+00
  0.00000000E+00  0.00000000E+00  0.00000000E+00
  0.00000000E+00  0.00000000E+00  0.00000000E+00
  0.00000000E+00  0.00000000E+00  0.00000000E+00
  0.00000000E+00  0.00000000E+00  0.00000000E+00
  0.00000000E+00  0.00000000E+00  0.00000000E+00
  0.00000000E+00  0.00000000E+00  0.00000000E+00
  0.00000000E+00  0.00000000E+00  0.00000000E+00
  0.00000000E+00  0.00000000E+00  0.00000000E+00
  0.00000000E+00  0.00000000E+00  0.00000000E+00
  0.00000000E+00  0.00000000E+00  0.00000000E+00
  0.00000000E+00  0.00000000E+00  0.00000000E+00
  0.00000000E+00  0.00000000E+00  0.00000000E+00
  0.00000000E+00  0.00000000E+00  0.00000000E+00
  0.00000000E+00  0.00000000E+00  0.00000000E+00
  0.00000000E+00  0.00000000E+00  0.00000000E+00
  0.00000000E+00  0.00000000E+00  0.00000000E+00
  0.00000000E+00  0.00000000E+00  0.00000000E+00
  0.00000000E+00  0.00000000E+00  0.00000000E+00
  0.00000000E+00  0.00000000E+00  0.00000000E+00
  0.00000000E+00  0.00000000E+00  0.00000000E+00
  0.00000000E+00  0.00000000E+00  0.00000000E+00
  0.00000000E+00  0.00000000E+00  0.00000000E+00
  0.00000000E+00  0.00000000E+00  0.00000000E+00
  0.00000000E+00  0.00000000E+00  0.00000000E+00
  0.00000000E+00  0.00000000E+00  0.00000000E+00
  0.00000000E+00  0.00000000E+00  0.00000000E+00
  0.00000000E+00  0.00000000E+00  0.00000000E+00
  0.00000000E+00  0.00000000E+00  0.00000000E+00
  0.00000000E+00  0.00000000E+00  0.00000000E+00
  0.00000000E+00  0.00000000E+00  0.00000000E+00
  0.00000000E+00  0.00000000E+00  0.00000000E+00
  0.00000000E+00  0.00000000E+00  0.00000000E+00
  0.00000000E+00  0.00000000E+00  0.00000000E+00
  0.00000000E+00  0.00000000E+00  0.00000000E+00
  0.00000000E+00  0.00000000E+00  0.00000000E+00
  0.00000000E+00  0.00000000E+00  0.00000000E+00
  0.00000000E+00  0.00000000E+00  0.00000000E+00
  0.00000000E+00  0.00000000E+00  0.00000000E+00
  0.00000000E+00  0.00000000E+00  0.00000000E+00
  0.00000000E+00  0.00000000E+00  0.00000000E+00
  0.00000000E+00  0.00000000E+00  0.00000000E+00
  0.00000000E+00  0.00000000E+00  0.00000000E+00
  0.00000000E+00  0.00000000E+00  0.00000000E+00
  0.00000000E+00  0.00000000E+00  0.00000000E+00
  0.00000000E+00  0.00000000E+00  0.00000000E+00
  0.00000000E+00  0.00000000E+00  0.00000000E+00
  0.00000000E+00  0.00000000E+00  0.00000000E+00
  0.00000000E+00  0.00000000E+00  0.00000000E+00
  0.00000000E+00  0.00000000E+00  0.00000000E+00
  0.00000000E+00  0.00000000E+00  0.00000000E+00
  0.00000000E+00  0.00000000E+00  0.00000000E+00
  0.00000000E+00  0.00000000E+00  0.00000000E+00
  0.00000000E+00  0.00000000E+00  0.00000000E+00
  0.00000000E+00  0.00000000E+00  0.00000000E+00
  0.00000000E+00  0.00000000E+00  0.00000000E+00
  0.00000000E+00  0.00000000E+00  0.00000000E+00
