GaN96 wurtzite                          
   1.00000000000000     
     9.5879999999999992    0.0000000000000000    0.0000000000000000
     0.0000000000000000   11.0712687619802637    0.0000000000000000
     0.0000000000000000    0.0000000000000000   10.3840000000000003
   Ga   N    C 
    48    47     1
Selective dynamics
Direct
  0.1665538624346160  0.0836713623454270  0.0004846718351641   T   T   T
  0.1667360006825628  0.9165108512212867  0.2503577545487869   T   T   T
  0.3333153119376968  0.3335692251351930  0.0003894703373196   T   T   T
  0.3333673580167761  0.1667592558811965  0.2501704598825926   T   T   T
  0.1671597081750094  0.0828807354186298  0.4999636243781347   T   T   T
  0.1669783628960981  0.9165511154894727  0.7501907728634174   T   T   T
  0.3332945628860139  0.3332505878465616  0.4997637327237964   T   T   T
  0.3333578373758463  0.1667167576990200  0.7501007473218004   T   T   T
  0.1665290463277958  0.5831096321751502  0.0003629119524170   T   T   T
  0.1655923334458381  0.4158522314012060  0.2503305579097999   T   T   T
  0.3332029393419291  0.8330912321110933  0.0001438650737678   T   T   T
  0.3333776618628929  0.6658865259623774  0.2505304536416999   T   T   T
  0.1654646194598086  0.5824406816144392  0.4988789352976197   T   T   T
  0.1667697419681527  0.4163671071480132  0.7496781132880637   T   T   T
  0.3333172093747924  0.8321488160212065  0.5000001913031833   T   T   T
  0.3333896695793511  0.6658395015303470  0.7496308499745754   T   T   T
  0.4999821469748926  0.0832681166234390  0.0003037647275097   T   T   T
  0.4999953137414289  0.9164625949442718  0.2503726520291212   T   T   T
  0.6667974155517978  0.3332638234984382  0.9980692130845784   T   T   T
  0.6665762944918976  0.1677255745518887  0.2503054111650451   T   T   T
  0.4994545010893805  0.0828986116549757  0.4999665552634619   T   T   T
  0.4997896243224341  0.9164234205024266  0.7500024989699625   T   T   T
  0.6686362588948190  0.3341410214207084  0.4993280329372567   T   T   T
  0.6664519283624336  0.1662708722344617  0.7496956050632585   T   T   T
  0.5000724663487531  0.5831388968298097  0.0003627520828847   T   T   T
  0.5011260822624207  0.4158534077021130  0.2503262741369905   T   T   T
  0.6665642845720935  0.8331425957818219  0.0002308983947125   T   T   T
  0.6679003332993171  0.6660532707918546  0.2503338230534778   T   T   T
  0.5012151623082328  0.5824294023674002  0.4988844254626106   T   T   T
  0.4999537532857717  0.4163888297423184  0.7496822278698941   T   T   T
  0.6664755658263014  0.8340975602534368  0.4998226688702632   T   T   T
  0.6666354610477403  0.6668344455409162  0.7496168341592052   T   T   T
  0.8332712445644643  0.0832579795297816  0.0004084797160367   T   T   T
  0.8333690960980974  0.9169600441106407  0.2503362745590312   T   T   T
  0.9997279801432630  0.3333201721221878  0.9980801815916956   T   T   T
  0.0000688540274246  0.1677755297086305  0.2503590324763664   T   T   T
  0.8332918836984394  0.0847088511538431  0.4990559264429473   T   T   T
  0.8333733678124952  0.9168664069277555  0.7498163381958775   T   T   T
  0.9979688372638894  0.3341169785032173  0.4992970162511445   T   T   T
  0.0002544092728215  0.1663090831887039  0.7496964670009402   T   T   T
  0.8333360032631065  0.5831415756859688  0.9980064018306057   T   T   T
  0.8333638100714343  0.4165675142804242  0.2517208214819747   T   T   T
  0.0001100994059810  0.8332899897368300  0.0002484920591026   T   T   T
  0.9988897012353475  0.6660791000941364  0.2503411107547715   T   T   T
  0.8333117333790089  0.5816475086464988  0.4992332767022552   T   T   T
  0.8333682627405193  0.4165324495104339  0.7462776832302381   T   T   T
  0.0002020972534130  0.8341046541255321  0.4998679333781537   T   T   T
  0.0001866895754153  0.6668576156256792  0.7496178673255067   T   T   T
  0.1667597204463976  0.0830532250213625  0.1888758223485793   T   T   T
  0.1668585732165226  0.9171532385583419  0.9389589753466865   F   F   F
  0.3333154307931567  0.3332222467512559  0.1886679046283723   T   T   T
  0.3333574212046928  0.1667047533594960  0.9388903531238944   T   T   T
  0.1672192161389519  0.0827546878387723  0.6889357552981235   T   T   T
  0.1677207583917003  0.9163843129385429  0.4388775029471534   T   T   T
  0.3333236028392756  0.3329426284997274  0.6888283177796660   T   T   T
  0.3333347988302355  0.1662671546840359  0.4387502661516692   T   T   T
  0.1664616585987336  0.5831412233974803  0.1889303008652808   T   T   T
  0.1672410836563745  0.4169356145842316  0.9383244248598959   T   T   T
  0.3333091838019132  0.8328208484071341  0.1887894098424563   T   T   T
  0.3332927719055592  0.6665666351173475  0.9386597185747080   T   T   T
  0.1666492543863221  0.5831794688691604  0.6882171879889530   T   T   T
  0.1684933921971127  0.4159359999547247  0.4385871256687369   T   T   T
  0.3332818125094633  0.8327195919221611  0.6889960545980924   T   T   T
  0.3333808554334683  0.6659511618912084  0.4389662590000594   T   T   T
  0.4998074412004913  0.0829471793318499  0.1887509770072288   T   T   T
  0.4997486441385064  0.9165318102335576  0.9386556240369828   F   F   F
  0.6657232603690117  0.3326449406355279  0.1851015078890950   T   T   T
  0.6666001773237025  0.1656301941627318  0.9383437670687105   T   T   T
  0.4993979490476418  0.0827039823634374  0.6889415587693509   T   T   T
  0.4989938098570875  0.9164039367163656  0.4388961534793248   T   T   T
  0.6649014249427475  0.3320798398028491  0.6905071935510013   T   T   T
  0.6646866768482955  0.1647149567732617  0.4386761094599291   T   T   T
  0.5002136461723904  0.5831513482474753  0.1889336572772871   T   T   T
  0.4993724411432862  0.4169728231179814  0.9383242821550065   T   T   T
  0.6666142516262787  0.8334800340942113  0.1887518393430849   T   T   T
  0.6658484559340273  0.6670318314439900  0.9382996605903209   T   T   T
  0.5000636921032252  0.5832020626941284  0.6882150760105088   T   T   T
  0.4981576913509084  0.4159147150629848  0.4385850385762327   T   T   T
  0.6664609108617029  0.8338682432261104  0.6888351513752125   T   T   T
  0.6658467234439521  0.6692354618294202  0.4387013806946095   T   T   T
  0.8333061394912777  0.0834886478456177  0.1889401211300017   T   T   T
  0.8333146217898634  0.9164601033076721  0.9387404619033760   T   T   T
  0.0008955966337863  0.3326695163187428  0.1850997779503712   T   T   T
  0.9999187185547800  0.1657398717513492  0.9383473353661781   T   T   T
  0.8333192325609331  0.0831679245983939  0.6883019210769414   T   T   T
  0.8333607150991216  0.9173343837248591  0.4388968014673619   T   T   T
  0.0017202148849678  0.3320943387038165  0.6904732229508850   T   T   T
  0.0019682244363364  0.1646917592418903  0.4387052817309368   T   T   T
  0.8333529765841599  0.5843062538438586  0.1851044736909446   T   T   T
  0.8332934385878904  0.4166051475680196  0.9361858100672629   T   T   T
  0.0000409343397941  0.8335090019192023  0.1887631533298427   T   T   T
  0.0008683913829847  0.6671326094162694  0.9383158289984039   T   T   T
  0.8333634521128896  0.5852074822967386  0.6904654011649577   T   T   T
  0.0002715614744796  0.8339254130888402  0.6889159303304335   T   T   T
  0.0008665185836482  0.6692314563901155  0.4387202131934029   T   T   T
  0.8333304672557718  0.4167127017196925  0.4386450436545838   T   T   T
 
  0.00000000E+00  0.00000000E+00  0.00000000E+00
  0.00000000E+00  0.00000000E+00  0.00000000E+00
  0.00000000E+00  0.00000000E+00  0.00000000E+00
  0.00000000E+00  0.00000000E+00  0.00000000E+00
  0.00000000E+00  0.00000000E+00  0.00000000E+00
  0.00000000E+00  0.00000000E+00  0.00000000E+00
  0.00000000E+00  0.00000000E+00  0.00000000E+00
  0.00000000E+00  0.00000000E+00  0.00000000E+00
  0.00000000E+00  0.00000000E+00  0.00000000E+00
  0.00000000E+00  0.00000000E+00  0.00000000E+00
  0.00000000E+00  0.00000000E+00  0.00000000E+00
  0.00000000E+00  0.00000000E+00  0.00000000E+00
  0.00000000E+00  0.00000000E+00  0.00000000E+00
  0.00000000E+00  0.00000000E+00  0.00000000E+00
  0.00000000E+00  0.00000000E+00  0.00000000E+00
  0.00000000E+00  0.00000000E+00  0.00000000E+00
  0.00000000E+00  0.00000000E+00  0.00000000E+00
  0.00000000E+00  0.00000000E+00  0.00000000E+00
  0.00000000E+00  0.00000000E+00  0.00000000E+00
  0.00000000E+00  0.00000000E+00  0.00000000E+00
  0.00000000E+00  0.00000000E+00  0.00000000E+00
  0.00000000E+00  0.00000000E+00  0.00000000E+00
  0.00000000E+00  0.00000000E+00  0.00000000E+00
  0.00000000E+00  0.00000000E+00  0.00000000E+00
  0.00000000E+00  0.00000000E+00  0.00000000E+00
  0.00000000E+00  0.00000000E+00  0.00000000E+00
  0.00000000E+00  0.00000000E+00  0.00000000E+00
  0.00000000E+00  0.00000000E+00  0.00000000E+00
  0.00000000E+00  0.00000000E+00  0.00000000E+00
  0.00000000E+00  0.00000000E+00  0.00000000E+00
  0.00000000E+00  0.00000000E+00  0.00000000E+00
  0.00000000E+00  0.00000000E+00  0.00000000E+00
  0.00000000E+00  0.00000000E+00  0.00000000E+00
  0.00000000E+00  0.00000000E+00  0.00000000E+00
  0.00000000E+00  0.00000000E+00  0.00000000E+00
  0.00000000E+00  0.00000000E+00  0.00000000E+00
  0.00000000E+00  0.00000000E+00  0.00000000E+00
  0.00000000E+00  0.00000000E+00  0.00000000E+00
  0.00000000E+00  0.00000000E+00  0.00000000E+00
  0.00000000E+00  0.00000000E+00  0.00000000E+00
  0.00000000E+00  0.00000000E+00  0.00000000E+00
  0.00000000E+00  0.00000000E+00  0.00000000E+00
  0.00000000E+00  0.00000000E+00  0.00000000E+00
  0.00000000E+00  0.00000000E+00  0.00000000E+00
  0.00000000E+00  0.00000000E+00  0.00000000E+00
  0.00000000E+00  0.00000000E+00  0.00000000E+00
  0.00000000E+00  0.00000000E+00  0.00000000E+00
  0.00000000E+00  0.00000000E+00  0.00000000E+00
  0.00000000E+00  0.00000000E+00  0.00000000E+00
  0.00000000E+00  0.00000000E+00  0.00000000E+00
  0.00000000E+00  0.00000000E+00  0.00000000E+00
  0.00000000E+00  0.00000000E+00  0.00000000E+00
  0.00000000E+00  0.00000000E+00  0.00000000E+00
  0.00000000E+00  0.00000000E+00  0.00000000E+00
  0.00000000E+00  0.00000000E+00  0.00000000E+00
  0.00000000E+00  0.00000000E+00  0.00000000E+00
  0.00000000E+00  0.00000000E+00  0.00000000E+00
  0.00000000E+00  0.00000000E+00  0.00000000E+00
  0.00000000E+00  0.00000000E+00  0.00000000E+00
  0.00000000E+00  0.00000000E+00  0.00000000E+00
  0.00000000E+00  0.00000000E+00  0.00000000E+00
  0.00000000E+00  0.00000000E+00  0.00000000E+00
  0.00000000E+00  0.00000000E+00  0.00000000E+00
  0.00000000E+00  0.00000000E+00  0.00000000E+00
  0.00000000E+00  0.00000000E+00  0.00000000E+00
  0.00000000E+00  0.00000000E+00  0.00000000E+00
  0.00000000E+00  0.00000000E+00  0.00000000E+00
  0.00000000E+00  0.00000000E+00  0.00000000E+00
  0.00000000E+00  0.00000000E+00  0.00000000E+00
  0.00000000E+00  0.00000000E+00  0.00000000E+00
  0.00000000E+00  0.00000000E+00  0.00000000E+00
  0.00000000E+00  0.00000000E+00  0.00000000E+00
  0.00000000E+00  0.00000000E+00  0.00000000E+00
  0.00000000E+00  0.00000000E+00  0.00000000E+00
  0.00000000E+00  0.00000000E+00  0.00000000E+00
  0.00000000E+00  0.00000000E+00  0.00000000E+00
  0.00000000E+00  0.00000000E+00  0.00000000E+00
  0.00000000E+00  0.00000000E+00  0.00000000E+00
  0.00000000E+00  0.00000000E+00  0.00000000E+00
  0.00000000E+00  0.00000000E+00  0.00000000E+00
  0.00000000E+00  0.00000000E+00  0.00000000E+00
  0.00000000E+00  0.00000000E+00  0.00000000E+00
  0.00000000E+00  0.00000000E+00  0.00000000E+00
  0.00000000E+00  0.00000000E+00  0.00000000E+00
  0.00000000E+00  0.00000000E+00  0.00000000E+00
  0.00000000E+00  0.00000000E+00  0.00000000E+00
  0.00000000E+00  0.00000000E+00  0.00000000E+00
  0.00000000E+00  0.00000000E+00  0.00000000E+00
  0.00000000E+00  0.00000000E+00  0.00000000E+00
  0.00000000E+00  0.00000000E+00  0.00000000E+00
  0.00000000E+00  0.00000000E+00  0.00000000E+00
  0.00000000E+00  0.00000000E+00  0.00000000E+00
  0.00000000E+00  0.00000000E+00  0.00000000E+00
  0.00000000E+00  0.00000000E+00  0.00000000E+00
  0.00000000E+00  0.00000000E+00  0.00000000E+00
  0.00000000E+00  0.00000000E+00  0.00000000E+00
